798	301
797	302
796	363
793	397
790	399
786	407
784	441
780	444
774	450
773	453
772	484
771	487
770	489
769	494
768	523
765	528
763	530
759	533
758	536
757	564
750	577
747	579
745	582
743	585
740	587
738	590
735	592
733	596
731	598
728	600
724	604
721	609
710	628
707	629
706	631
703	636
702	637
701	639
698	642
696	644
694	645
692	648
691	650
690	651
687	653
686	655
685	656
684	658
680	662
677	663
673	670
663	676
633	682
629	683
